1480.99
0 5 46 48 23 20 17 1 34 19 13 12 45 4 31 49 39 2 69 38 44 65 3 60 58 14 22 42 71 7 30 63 64 21 28 74 59 24 36 73 52 33 43 16 41 50 57 55 66 25 32 27 47 6 56 8 53 26 68 40 37 35 18 29 72 10 15 51 70 9 61 54 62 11 67
